
        $ From http://www.csplib.org/Problems/prob009/data/helmut.pdf
        $ Problem number 10
        $ Sequence length : 23
        language ESSENCE' 1.0
        letting sizemaster be 110
        letting sizes be sequence(1,2,3,4,5,7,8,10,12,13,14,15,16,19,21,28,29,31,32,37,38,41,44)
        